
GUB cover cuts applied:  2
Clique cuts applied:  1
Cover cuts applied:  19
Implied bound cuts applied:  193
Flow cuts applied:  4
Mixed integer rounding cuts applied:  55
Zero-half cuts applied:  24
Multi commodity flow cuts applied:  2
Gomory fractional cuts applied:  1

Root node processing (before b&c):
  Real time             =    0.21 sec. (117.98 ticks)
Parallel b&c, 4 threads:
  Real time             =    0.13 sec. (118.73 ticks)
  Sync time (average)   =    0.01 sec.
  Wait time (average)   =    0.00 sec.
                          ------------
Total (root+branch&cut) =    0.33 sec. (236.71 ticks)
Version identifier: 12.10.0.0 | 2019-11-26 | 843d4de
CPXPARAM_MIP_Interval                            10
CPXPARAM_MIP_Tolerances_AbsMIPGap                0.98999999999999999
Tried aggregator 2 times.
MIP Presolve eliminated 1244 rows and 582 columns.
MIP Presolve added 4 rows and 0 columns.
MIP Presolve modified 80 coefficients.
Aggregator did 11 substitutions.
Reduced MIP has 575 rows, 106 columns, and 1297 nonzeros.
Reduced MIP has 82 binaries, 24 generals, 0 SOSs, and 0 indicators.
Presolve time = 0.00 sec. (2.55 ticks)
Probing fixed 0 vars, tightened 6 bounds.
Probing time = 0.00 sec. (0.28 ticks)
Cover probing fixed 0 vars, tightened 13 bounds.
Tried aggregator 1 time.
Detecting symmetries...
MIP Presolve eliminated 377 rows and 0 columns.
MIP Presolve modified 21 coefficients.
Reduced MIP has 198 rows, 106 columns, and 543 nonzeros.
Reduced MIP has 82 binaries, 24 generals, 0 SOSs, and 0 indicators.
Presolve time = 0.00 sec. (0.59 ticks)
Probing fixed 0 vars, tightened 8 bounds.
Probing time = 0.00 sec. (0.12 ticks)
Cover probing fixed 0 vars, tightened 8 bounds.
Clique table members: 146.
MIP emphasis: balance optimality and feasibility.
MIP search method: dynamic search.
Parallel mode: deterministic, using up to 4 threads.
Root relaxation solution time = 0.00 sec. (0.53 ticks)

        Nodes                                         Cuts/
   Node  Left     Objective  IInf  Best Integer    Best Bound    ItCnt     Gap

      0     0       15.6667    56                     15.6667       79         
      0     0       15.6667    56                    Cuts: 16      134         
      0     0       15.6667    56                     Cuts: 5      161         
      0     0       15.6667    56                    Cuts: 61      233         
*     0+    0                           11.0000       15.6667            42.42%
*     0+    0                           14.0000       15.6667            11.90%
      0     0        cutoff             14.0000       14.0000      233    0.00%
Elapsed time = 0.03 sec. (21.42 ticks, tree = 0.01 MB, solutions = 2)
the number of Nodes = 0
